sat
( (c_init 4)
  (i_init 5)
  (c_0 (- 1))
  (c_1 4)
  (c_2 5)
  (c_3 (- 1))
  (c_4 0)
  (c_5 0)
  (c_6 (- 102))
  (c_7 1)
  (c_8 0)
  (c_9 (- 1))
  (c_10 0)
  (c_11 0)
  (c_12 0)
  (c_13 0)
  (c_14 (- 1)) )
